4 
5  22 37 52 
6  09 24 39 54 
7  09 25 40 55 
8  10 25 40 55 
9  10 25 40 55 
10  10 25 40 55 
11  10 25 40 55 
12  10 25 40 55 
13  10 25 40 55 
14  10 30 45 
15  00 15 30 45 
16  00 15 30 45 
17  00 15 30 48 
18  05 20 36 52 
19  06 21 36 51 
20  06 21 36 51 
21 
